unsat
(:cnf-encoding-aux-vars   141
 :eliminated-applications 1
 :eliminated-vars         128
 :max-memory              19.15
 :memory                  18.58
 :nlsat-conflicts         9
 :nlsat-decisions         10
 :nlsat-propagations      35
 :num-allocs              224666
 :rlimit-count            80820
 :time                    0.02
 :total-time              0.04)
